# Random Circle Problem
param d := 0.05; 
param n := 10; 
param radius := 2.00; 
param v0 := 
1 5.36
2 5.31
3 5.13
4 5.32
5 5.45
6 5.80
7 5.78
8 5.69
9 5.75
10 5.79
;
param cap := 
1 2.88698
2 3.25107
3 4.81057
4 4.96528
5 5.62063
6 6.03379
7 0.15797
8 1.16965
9 2.26998
10 2.55279
;
param x0 := 
1 2.00
2 1.62
3 0.62
4 -0.62
5 -1.62
6 -2.00
7 -1.62
8 -0.62
9 0.62
10 1.62
;
param y0 := 
1 -0.00
2 1.18
3 1.90
4 1.90
5 1.18
6 0.00
7 -1.18
8 -1.90
9 -1.90
10 -1.18
;
